Ta8 V16
1.0
7.125422 0.000000 0.000000
0.000000 7.125422 0.000000
0.000000 0.000000 7.125422
Ta V
8 16
direct
0.250000 0.750000 0.250000 Ta
0.000000 0.000000 0.500000 Ta
0.250000 0.250000 0.750000 Ta
0.000000 0.500000 0.000000 Ta
0.750000 0.750000 0.750000 Ta
0.500000 0.000000 0.000000 Ta
0.750000 0.250000 0.250000 Ta
0.500000 0.500000 0.500000 Ta
0.875000 0.875000 0.125000 V
0.375000 0.125000 0.375000 V
0.625000 0.875000 0.375000 V
0.125000 0.125000 0.125000 V
0.875000 0.375000 0.625000 V
0.375000 0.625000 0.875000 V
0.625000 0.375000 0.875000 V
0.125000 0.625000 0.625000 V
0.375000 0.875000 0.625000 V
0.875000 0.125000 0.875000 V
0.125000 0.875000 0.875000 V
0.625000 0.125000 0.625000 V
0.375000 0.375000 0.125000 V
0.875000 0.625000 0.375000 V
0.125000 0.375000 0.375000 V
0.625000 0.625000 0.125000 V
